p cnf 12 50 
5 1 -3 0
9 4 6 0
2 -10 -3 0
6 7 12 0
-5 4 6 0
-8 -5 10 0
-12 8 2 0
-12 3 5 0
-1 -3 -8 0
11 -1 -6 0
-10 6 -8 0
-10 7 8 0
-3 6 -5 0
8 11 7 0
11 5 -4 0
-7 9 -1 0
11 -8 1 0
-6 1 -4 0
10 3 2 0
-2 3 -1 0
5 8 -4 0
-1 12 11 0
-8 -12 -6 0
-4 -2 7 0
3 10 -1 0
9 -4 -12 0
4 1 -7 0
-9 3 -12 0
-3 4 6 0
-11 -5 7 0
4 -1 3 0
12 -11 10 0
11 10 -5 0
8 3 7 0
-9 2 1 0
-3 -6 1 0
12 -5 11 0
-12 1 6 0
-9 -1 -5 0
1 9 -2 0
7 1 -12 0
1 -12 9 0
-5 -7 -12 0
-4 -6 12 0
-5 -9 6 0
7 -9 12 0
1 -2 3 0
-10 -4 -7 0
-9 5 -4 0
5 7 -12 0
